48
1000
199	2
198	2
197	3
196	3
195	5
194	2
193	3
192	4
191	2
190	3
189	5
187	3
186	3
185	3
184	1
183	2
182	2
181	3
180	3
179	2
178	1
177	3
176	3
175	3
174	2
173	1
172	4
171	2
169	1
168	2
167	3
166	2
165	1
164	4
163	1
162	1
161	1
160	1
159	2
158	4
157	4
156	2
155	5
154	1
153	1
152	1
151	4
150	4
